\ This file has been generated by DOcplex
\ ENCODING=ISO-8859-1
\Problem name: random_problem.lp

Minimize
 obj: 498 x0 + 249 x1 - 1014 x2 - 507 x3 - 96 x4 - 48 x5 - 422 x6 - 211 x7
      - 156 x8 - 78 x9 + [ 680 x0^2 + 680 x0*x1 + 256 x0*x2 + 128 x0*x3
      + 720 x0*x4 + 360 x0*x5 + 880 x0*x6 + 440 x0*x7 + 640 x0*x8 + 320 x0*x9
      + 170 x1^2 + 128 x1*x2 + 64 x1*x3 + 360 x1*x4 + 180 x1*x5 + 440 x1*x6
      + 220 x1*x7 + 320 x1*x8 + 160 x1*x9 + 4880 x2^2 + 4880 x2*x3 + 512 x2*x4
      + 256 x2*x5 + 1008 x2*x6 + 504 x2*x7 + 1504 x2*x8 + 752 x2*x9 + 1220 x3^2
      + 256 x3*x4 + 128 x3*x5 + 504 x3*x6 + 252 x3*x7 + 752 x3*x8 + 376 x3*x9
      + 512 x4^2 + 512 x4*x5 + 672 x4*x6 + 336 x4*x7 + 448 x4*x8 + 224 x4*x9
      + 128 x5^2 + 336 x5*x6 + 168 x5*x7 + 224 x5*x8 + 112 x5*x9 + 576 x6^2
      + 576 x6*x7 + 720 x6*x8 + 360 x6*x9 + 144 x7^2 + 360 x7*x8 + 180 x7*x9
      + 504 x8^2 + 504 x8*x9 + 126 x9^2 ]/2
Subject To
 c0: 2 x0 + x1 + 2 x2 + x3 + 2 x4 + x5 + 2 x6 + x7 + 2 x8 + x9 = 3

Bounds
 0 <= x0 <= 1
 0 <= x1 <= 1
 0 <= x2 <= 1
 0 <= x3 <= 1
 0 <= x4 <= 1
 0 <= x5 <= 1
 0 <= x6 <= 1
 0 <= x7 <= 1
 0 <= x8 <= 1
 0 <= x9 <= 1

Binaries
 x0 x1 x2 x3 x4 x5 x6 x7 x8 x9
End
